solution status: optimal solution found
objective value:                     109316.835295921
d11(0,0)                                            1 	(obj:0)
d11(1,1)                                            1 	(obj:0)
d11(2,3)                                            1 	(obj:0)
d11(2,5)                                            1 	(obj:0)
d11(3,7)                                            1 	(obj:0)
d11(3,8)                                            1 	(obj:0)
d11(3,9)                                            1 	(obj:0)
d11(3,11)                                           1 	(obj:0)
d11(3,13)                                           1 	(obj:0)
d11(3,14)                                           1 	(obj:0)
d12(2,4)                                            1 	(obj:0)
d12(2,6)                                            1 	(obj:0)
d21(3,7)                                            1 	(obj:0)
d21(3,9)                                            1 	(obj:0)
d21(3,11)                                           1 	(obj:0)
WB(2)                                3315.65537776224 	(obj:0)
y2(2,4)                              1354.63444677442 	(obj:0)
y2(2,6)                              1354.63444677442 	(obj:0)
STE(1,1)                              7214.9381903922 	(obj:0)
STE(0,0)                                         9450 	(obj:0)
STE(1,2)                                         8694 	(obj:0)
STE(2,3)                             6426.00029999895 	(obj:0)
STE(2,4)                              7745.8409148279 	(obj:0)
STE(2,5)                             7905.06210960675 	(obj:0)
STE(2,6)                              9224.9027244357 	(obj:0)
STE(3,7)                             4011.75040111011 	(obj:0)
STE(3,8)                                    5670.0003 	(obj:0)
STE(3,9)                             5331.59101593906 	(obj:0)
STE(3,10)                             6989.8409148279 	(obj:0)
STE(3,11)                            5490.81221071791 	(obj:0)
STE(3,12)                            7149.06210960675 	(obj:0)
STE(3,13)                            6810.65282554686 	(obj:0)
STE(3,14)                            8468.90272443567 	(obj:0)
AVE(2)                               3315.65537776224 	(obj:0)
WB(3)                                3315.65799770399 	(obj:0)
y1(1,1)                              1331.15562864702 	(obj:0)
y1(2,3)                              29.6441013539233 	(obj:0)
y1(2,5)                              29.6441013539234 	(obj:0)
y1(3,7)                              1492.42490899996 	(obj:0)
y1(3,9)                              1492.42490899996 	(obj:0)
y1(3,11)                             1492.42490899996 	(obj:0)
y1(3,13)                             1492.42490899996 	(obj:0)
AVE(3)                               3315.65799770399 	(obj:0)
WB(1)                                3248.33172520918 	(obj:0)
BG(1)                                4031.73200882353 	(obj:10)
BG(2)                                2703.65902178976 	(obj:10)
BG(3)                                4196.29249897959 	(obj:10)
AVE(1)                               3248.33172520918 	(obj:0)
